\ Model MasterKnapsack
\ LP format - for model browsing. Use MPS format to capture full model detail.
Minimize
  sa_0 + 0 gv_beta_0 + 0 gv_beta_ue_tp_(1,_'PPE_1')
   + 0 gv_beta_uu_tp_(1,_'PPE_1') + 0 gv_beta_uv_tp_(1,_'PPE_1')
   + 0 gv_beta_ue_tp_(2,_'PPE_1') + 0 gv_beta_uu_tp_(2,_'PPE_1')
   + 0 gv_beta_uv_tp_(2,_'PPE_1') + 0 gv_beta_ue_tp_(3,_'PPE_1')
   + 0 gv_beta_uu_tp_(3,_'PPE_1') + 0 gv_beta_uv_tp_(3,_'PPE_1')
   + 0 gv_beta_ue_tp_(4,_'PPE_1') + 0 gv_beta_uu_tp_(4,_'PPE_1')
   + 0 gv_beta_uv_tp_(4,_'PPE_1') + 0 gv_beta_ue_tp_(5,_'PPE_1')
   + 0 gv_beta_uu_tp_(5,_'PPE_1') + 0 gv_beta_uv_tp_(5,_'PPE_1')
   + 0 gv_beta_ue_tp_(6,_'PPE_1') + 0 gv_beta_uu_tp_(6,_'PPE_1')
   + 0 gv_beta_uv_tp_(6,_'PPE_1') + 0 gv_beta_ue_tp_(7,_'PPE_1')
   + 0 gv_beta_uu_tp_(7,_'PPE_1') + 0 gv_beta_uv_tp_(7,_'PPE_1')
   + 0 gv_beta_ue_tp_(8,_'PPE_1') + 0 gv_beta_uu_tp_(8,_'PPE_1')
   + 0 gv_beta_uv_tp_(8,_'PPE_1') + 0 gv_beta_ue_tp_(9,_'PPE_1')
   + 0 gv_beta_uu_tp_(9,_'PPE_1') + 0 gv_beta_uv_tp_(9,_'PPE_1')
   + 0 gv_beta_ue_tp_(10,_'PPE_1') + 0 gv_beta_uu_tp_(10,_'PPE_1')
   + 0 gv_beta_uv_tp_(10,_'PPE_1')
   + 0 gv_beta_pe_dc_('Complexity_1',_'Complexity_1')
   + 0 gv_beta_pw_mdc_(1,_'Complexity_1',_'CPU_1')
   + 0 gv_beta_pw_mdc_(2,_'Complexity_1',_'CPU_1')
   + 0 gv_beta_pw_mdc_(3,_'Complexity_1',_'CPU_1')
   + 0 gv_beta_pw_mdc_(4,_'Complexity_1',_'CPU_1')
   + 0 gv_beta_pw_mdc_(5,_'Complexity_1',_'CPU_1')
   + 0 gv_beta_pw_mdc_(6,_'Complexity_1',_'CPU_1')
   + 0 gv_beta_pw_mdc_(7,_'Complexity_1',_'CPU_1')
   + 0 gv_beta_pw_mdc_(8,_'Complexity_1',_'CPU_1')
   + 0 gv_beta_pw_mdc_(9,_'Complexity_1',_'CPU_1')
   + 0 gv_beta_pw_mdc_(10,_'Complexity_1',_'CPU_1')
   + 0 gv_beta_ps_tmdc_(1,_0,_'Complexity_1',_'CPU_1')
   + 0 gv_beta_ps_tmdc_(1,_1,_'Complexity_1',_'CPU_1')
   + 0 gv_beta_ps_tmdc_(1,_2,_'Complexity_1',_'CPU_1')
   + 0 gv_beta_ps_tmdc_(1,_3,_'Complexity_1',_'CPU_1')
   + 0 gv_beta_ps_tmdc_(1,_4,_'Complexity_1',_'CPU_1')
   + 0 gv_beta_ps_tmdc_(1,_5,_'Complexity_1',_'CPU_1')
   + 0 gv_beta_ps_tmdc_(1,_6,_'Complexity_1',_'CPU_1')
   + 0 gv_beta_ps_tmdc_(1,_7,_'Complexity_1',_'CPU_1')
   + 0 gv_beta_ps_tmdc_(1,_8,_'Complexity_1',_'CPU_1')
   + 0 gv_beta_ps_tmdc_(1,_9,_'Complexity_1',_'CPU_1')
   + 0 gv_beta_ps_tmdc_(1,_10,_'Complexity_1',_'CPU_1')
   + 0 gv_beta_ps_tmdc_(2,_0,_'Complexity_1',_'CPU_1')
   + 0 gv_beta_ps_tmdc_(2,_1,_'Complexity_1',_'CPU_1')
   + 0 gv_beta_ps_tmdc_(2,_2,_'Complexity_1',_'CPU_1')
   + 0 gv_beta_ps_tmdc_(2,_3,_'Complexity_1',_'CPU_1')
   + 0 gv_beta_ps_tmdc_(2,_4,_'Complexity_1',_'CPU_1')
   + 0 gv_beta_ps_tmdc_(2,_5,_'Complexity_1',_'CPU_1')
   + 0 gv_beta_ps_tmdc_(2,_6,_'Complexity_1',_'CPU_1')
   + 0 gv_beta_ps_tmdc_(2,_7,_'Complexity_1',_'CPU_1')
   + 0 gv_beta_ps_tmdc_(2,_8,_'Complexity_1',_'CPU_1')
   + 0 gv_beta_ps_tmdc_(2,_9,_'Complexity_1',_'CPU_1')
   + 0 gv_beta_ps_tmdc_(2,_10,_'Complexity_1',_'CPU_1')
   + 0 gv_beta_ps_tmdc_(3,_0,_'Complexity_1',_'CPU_1')
   + 0 gv_beta_ps_tmdc_(3,_1,_'Complexity_1',_'CPU_1')
   + 0 gv_beta_ps_tmdc_(3,_2,_'Complexity_1',_'CPU_1')
   + 0 gv_beta_ps_tmdc_(3,_3,_'Complexity_1',_'CPU_1')
   + 0 gv_beta_ps_tmdc_(3,_4,_'Complexity_1',_'CPU_1')
   + 0 gv_beta_ps_tmdc_(3,_5,_'Complexity_1',_'CPU_1')
   + 0 gv_beta_ps_tmdc_(3,_6,_'Complexity_1',_'CPU_1')
   + 0 gv_beta_ps_tmdc_(3,_7,_'Complexity_1',_'CPU_1')
   + 0 gv_beta_ps_tmdc_(3,_8,_'Complexity_1',_'CPU_1')
   + 0 gv_beta_ps_tmdc_(3,_9,_'Complexity_1',_'CPU_1')
   + 0 gv_beta_ps_tmdc_(3,_10,_'Complexity_1',_'CPU_1')
   + 0 gv_beta_ps_tmdc_(4,_0,_'Complexity_1',_'CPU_1')
   + 0 gv_beta_ps_tmdc_(4,_1,_'Complexity_1',_'CPU_1')
   + 0 gv_beta_ps_tmdc_(4,_2,_'Complexity_1',_'CPU_1')
   + 0 gv_beta_ps_tmdc_(4,_3,_'Complexity_1',_'CPU_1')
   + 0 gv_beta_ps_tmdc_(4,_4,_'Complexity_1',_'CPU_1')
   + 0 gv_beta_ps_tmdc_(4,_5,_'Complexity_1',_'CPU_1')
   + 0 gv_beta_ps_tmdc_(4,_6,_'Complexity_1',_'CPU_1')
   + 0 gv_beta_ps_tmdc_(4,_7,_'Complexity_1',_'CPU_1')
   + 0 gv_beta_ps_tmdc_(4,_8,_'Complexity_1',_'CPU_1')
   + 0 gv_beta_ps_tmdc_(4,_9,_'Complexity_1',_'CPU_1')
   + 0 gv_beta_ps_tmdc_(4,_10,_'Complexity_1',_'CPU_1')
   + 0 gv_beta_ps_tmdc_(5,_0,_'Complexity_1',_'CPU_1')
   + 0 gv_beta_ps_tmdc_(5,_1,_'Complexity_1',_'CPU_1')
   + 0 gv_beta_ps_tmdc_(5,_2,_'Complexity_1',_'CPU_1')
   + 0 gv_beta_ps_tmdc_(5,_3,_'Complexity_1',_'CPU_1')
   + 0 gv_beta_ps_tmdc_(5,_4,_'Complexity_1',_'CPU_1')
   + 0 gv_beta_ps_tmdc_(5,_5,_'Complexity_1',_'CPU_1')
   + 0 gv_beta_ps_tmdc_(5,_6,_'Complexity_1',_'CPU_1')
   + 0 gv_beta_ps_tmdc_(5,_7,_'Complexity_1',_'CPU_1')
   + 0 gv_beta_ps_tmdc_(5,_8,_'Complexity_1',_'CPU_1')
   + 0 gv_beta_ps_tmdc_(5,_9,_'Complexity_1',_'CPU_1')
   + 0 gv_beta_ps_tmdc_(5,_10,_'Complexity_1',_'CPU_1')
   + 0 gv_beta_ps_tmdc_(6,_0,_'Complexity_1',_'CPU_1')
   + 0 gv_beta_ps_tmdc_(6,_1,_'Complexity_1',_'CPU_1')
   + 0 gv_beta_ps_tmdc_(6,_2,_'Complexity_1',_'CPU_1')
   + 0 gv_beta_ps_tmdc_(6,_3,_'Complexity_1',_'CPU_1')
   + 0 gv_beta_ps_tmdc_(6,_4,_'Complexity_1',_'CPU_1')
   + 0 gv_beta_ps_tmdc_(6,_5,_'Complexity_1',_'CPU_1')
   + 0 gv_beta_ps_tmdc_(6,_6,_'Complexity_1',_'CPU_1')
   + 0 gv_beta_ps_tmdc_(6,_7,_'Complexity_1',_'CPU_1')
   + 0 gv_beta_ps_tmdc_(6,_8,_'Complexity_1',_'CPU_1')
   + 0 gv_beta_ps_tmdc_(6,_9,_'Complexity_1',_'CPU_1')
   + 0 gv_beta_ps_tmdc_(6,_10,_'Complexity_1',_'CPU_1')
   + 0 gv_beta_ps_tmdc_(7,_0,_'Complexity_1',_'CPU_1')
   + 0 gv_beta_ps_tmdc_(7,_1,_'Complexity_1',_'CPU_1')
   + 0 gv_beta_ps_tmdc_(7,_2,_'Complexity_1',_'CPU_1')
   + 0 gv_beta_ps_tmdc_(7,_3,_'Complexity_1',_'CPU_1')
   + 0 gv_beta_ps_tmdc_(7,_4,_'Complexity_1',_'CPU_1')
   + 0 gv_beta_ps_tmdc_(7,_5,_'Complexity_1',_'CPU_1')
   + 0 gv_beta_ps_tmdc_(7,_6,_'Complexity_1',_'CPU_1')
   + 0 gv_beta_ps_tmdc_(7,_7,_'Complexity_1',_'CPU_1')
   + 0 gv_beta_ps_tmdc_(7,_8,_'Complexity_1',_'CPU_1')
   + 0 gv_beta_ps_tmdc_(7,_9,_'Complexity_1',_'CPU_1')
   + 0 gv_beta_ps_tmdc_(7,_10,_'Complexity_1',_'CPU_1')
   + 0 gv_beta_ps_tmdc_(8,_0,_'Complexity_1',_'CPU_1')
   + 0 gv_beta_ps_tmdc_(8,_1,_'Complexity_1',_'CPU_1')
   + 0 gv_beta_ps_tmdc_(8,_2,_'Complexity_1',_'CPU_1')
   + 0 gv_beta_ps_tmdc_(8,_3,_'Complexity_1',_'CPU_1')
   + 0 gv_beta_ps_tmdc_(8,_4,_'Complexity_1',_'CPU_1')
   + 0 gv_beta_ps_tmdc_(8,_5,_'Complexity_1',_'CPU_1')
   + 0 gv_beta_ps_tmdc_(8,_6,_'Complexity_1',_'CPU_1')
   + 0 gv_beta_ps_tmdc_(8,_7,_'Complexity_1',_'CPU_1')
   + 0 gv_beta_ps_tmdc_(8,_8,_'Complexity_1',_'CPU_1')
   + 0 gv_beta_ps_tmdc_(8,_9,_'Complexity_1',_'CPU_1')
   + 0 gv_beta_ps_tmdc_(8,_10,_'Complexity_1',_'CPU_1')
   + 0 gv_beta_ps_tmdc_(9,_0,_'Complexity_1',_'CPU_1')
   + 0 gv_beta_ps_tmdc_(9,_1,_'Complexity_1',_'CPU_1')
   + 0 gv_beta_ps_tmdc_(9,_2,_'Complexity_1',_'CPU_1')
   + 0 gv_beta_ps_tmdc_(9,_3,_'Complexity_1',_'CPU_1')
   + 0 gv_beta_ps_tmdc_(9,_4,_'Complexity_1',_'CPU_1')
   + 0 gv_beta_ps_tmdc_(9,_5,_'Complexity_1',_'CPU_1')
   + 0 gv_beta_ps_tmdc_(9,_6,_'Complexity_1',_'CPU_1')
   + 0 gv_beta_ps_tmdc_(9,_7,_'Complexity_1',_'CPU_1')
   + 0 gv_beta_ps_tmdc_(9,_8,_'Complexity_1',_'CPU_1')
   + 0 gv_beta_ps_tmdc_(9,_9,_'Complexity_1',_'CPU_1')
   + 0 gv_beta_ps_tmdc_(9,_10,_'Complexity_1',_'CPU_1')
   + 0 gv_beta_ps_tmdc_(10,_0,_'Complexity_1',_'CPU_1')
   + 0 gv_beta_ps_tmdc_(10,_1,_'Complexity_1',_'CPU_1')
   + 0 gv_beta_ps_tmdc_(10,_2,_'Complexity_1',_'CPU_1')
   + 0 gv_beta_ps_tmdc_(10,_3,_'Complexity_1',_'CPU_1')
   + 0 gv_beta_ps_tmdc_(10,_4,_'Complexity_1',_'CPU_1')
   + 0 gv_beta_ps_tmdc_(10,_5,_'Complexity_1',_'CPU_1')
   + 0 gv_beta_ps_tmdc_(10,_6,_'Complexity_1',_'CPU_1')
   + 0 gv_beta_ps_tmdc_(10,_7,_'Complexity_1',_'CPU_1')
   + 0 gv_beta_ps_tmdc_(10,_8,_'Complexity_1',_'CPU_1')
   + 0 gv_beta_ps_tmdc_(10,_9,_'Complexity_1',_'CPU_1')
   + 0 gv_beta_ps_tmdc_(10,_10,_'Complexity_1',_'CPU_1')
Subject To
 beta_0: 0.05 sa_0 = 1
 beta_ue_tp_1_PPE-1: 0.5 sa_0 >= 10
 beta_ue_tp_2_PPE-1: 0.5 sa_0 >= 10
 beta_ue_tp_3_PPE-1: 0.5 sa_0 >= 10
 beta_ue_tp_4_PPE-1: 0.5 sa_0 >= 10
 beta_ue_tp_5_PPE-1: 0.5 sa_0 >= 10
 beta_ue_tp_6_PPE-1: 0.5 sa_0 >= 10
 beta_ue_tp_7_PPE-1: 0.5 sa_0 >= 10
 beta_ue_tp_8_PPE-1: 0.5 sa_0 >= 10
 beta_ue_tp_9_PPE-1: 0.5 sa_0 >= 10
 beta_ue_tp_10_PPE-1: 0.5 sa_0 >= 10
 beta_uu_tp_1_PPE-1: >= 0
 beta_uu_tp_2_PPE-1: >= 0
 beta_uu_tp_3_PPE-1: >= 0
 beta_uu_tp_4_PPE-1: >= 0
 beta_uu_tp_5_PPE-1: >= 0
 beta_uu_tp_6_PPE-1: >= 0
 beta_uu_tp_7_PPE-1: >= 0
 beta_uu_tp_8_PPE-1: >= 0
 beta_uu_tp_9_PPE-1: >= 0
 beta_uu_tp_10_PPE-1: >= 0
 beta_uv_tp_1_PPE-1: >= 0
 beta_uv_tp_2_PPE-1: >= 0
 beta_uv_tp_3_PPE-1: >= 0
 beta_uv_tp_4_PPE-1: >= 0
 beta_uv_tp_5_PPE-1: >= 0
 beta_uv_tp_6_PPE-1: >= 0
 beta_uv_tp_7_PPE-1: >= 0
 beta_uv_tp_8_PPE-1: >= 0
 beta_uv_tp_9_PPE-1: >= 0
 beta_uv_tp_10_PPE-1: >= 0
 beta_pe_dc_Complexity-1_CPU-1: 0.05 sa_0 >= 1
 beta_pw_mdc_1_Complexity-1_CPU-1: - 0.95 sa_0 >= 0
 beta_pw_mdc_2_Complexity-1_CPU-1: >= 0
 beta_pw_mdc_3_Complexity-1_CPU-1: >= 0
 beta_pw_mdc_4_Complexity-1_CPU-1: >= 0
 beta_pw_mdc_5_Complexity-1_CPU-1: >= 0
 beta_pw_mdc_6_Complexity-1_CPU-1: >= 0
 beta_pw_mdc_7_Complexity-1_CPU-1: >= 0
 beta_pw_mdc_8_Complexity-1_CPU-1: >= 0
 beta_pw_mdc_9_Complexity-1_CPU-1: >= 0
 beta_pw_mdc_10_Complexity-1_CPU-1: >= 0
Bounds
End
